
 102   30
  10   10   10   10   10   10   10   10   10   10   10   10   10   10   10   10   10   10   10   10   10   10   10   10   10   10   10   10   10   10

   0   0   0   0   0   0   0   0   0   0   0   0   0   0   0   0   0   0   0   0   0   0   0   0   0   0   0   0   0   0   0  28 2 3 5 6 7 8 9 10 11 13 14 15 16 17 18 19 20 21 23 25 26 27 29 30 32 42 45 46 
   8   0   0   0   0   0   0   0   0   0   0   0   0   0   0   0   0   0   0   0   0   0   0   0   0   0   0   1   1   0   0  10 58 56 49 44 43 37 33 31 22 4 
   4   0   0   0   0   2   1   0   1   0   0   1   0   0   1   0   1   0   0   0   2   0   0   0   0   0   0   0   0   3   0  14 98 97 74 64 57 56 55 50 49 48 41 34 31 24 
   5   0   0   3   0   0   0   0   0   0   0   5   1   0   0   0   0   0   0   0   6   0   0   4   0   0   0   0   0   0   0  11 73 67 66 65 63 62 54 53 47 28 12 
   3   0   0   0   1   0   0   0   0   0   0   0   0   0   0   0   0   4   0   0   0   4   0   0   1   0   0   0   0   0   1  13 100 98 97 74 70 68 66 60 57 50 49 48 24 
  10   0   0   0   0   0   0   0   6   0   2   0   0   0   0   0   4   0   1   0   0   0   2   0   0   1   0   0   0   0   0  16 101 100 71 70 63 62 61 60 57 55 53 51 48 37 35 34 
   4   0   0   0   0   7   0   2   0   0   0   0   0   0   0   0   0   0   0   0   0   0   7   0   0   0   0   0   0   3   0  16 101 100 96 65 62 61 60 57 55 52 51 49 44 40 38 37 
   8   0   0   0   0   0   0   5   0   0   0   0   0   0   0   0   0   0   0   0   0   0   0   0   0   0   0   0   0  10   0  16 101 99 97 93 74 71 70 58 57 56 52 51 49 47 36 33 
   6   0   0   0   0   0   0   0   0   0   0   0   0   0   0   0   0   0   0   0   0   3   0   0   0   0   0   0   0   0   0  17 100 92 74 71 70 66 64 63 61 60 53 51 50 49 48 47 37 
   4   0   0   0   6   0   0   6   0   0   0   0   0   0   3   0   0   0   0   0   0   6   0   0   0   0   0   0   0   0   0  10 88 74 70 62 61 55 47 37 34 28 
   7   0   0   0   0   0   0   0   0   0   0   0   7   0   0   0   0   0   0   0   0   0   0   0   0   0   0   0   0   0   0  17 99 98 97 96 93 91 72 71 70 66 63 58 57 55 52 49 36 
   1   0   0   9   0   0   0   0   0   0   0   0   0   0   0   0   0   0   0   0   0   0   0   0   0   0   0   8   0   0   0  17 101 99 98 96 95 93 91 74 72 71 70 59 57 52 50 48 36 
   8   0   0   0   0  10   0   0   0   0   0   0   0   0   0   0   0   0   0   0  10   3   0   0   0   0   2   0   0   0   0   8 92 62 53 51 47 37 36 31 
   8   0   0   0   0   0   0   5   0   0   0   0   8   0   0   0   0   0   0   0   0   0   0   0   0   7   0   0   0   0   0  14 97 91 71 70 66 62 61 60 57 53 51 49 48 34 
   9   0   2   0   0   0   0   0   0   0   0   0   0   0   0   0   0   0   8   0   0   0   0   0   0   0   0   0  10   0   7  21 100 99 98 97 95 93 91 89 88 74 73 72 70 69 68 63 62 61 57 52 50 
   1   0   0   3   0   0   0   0   0   0   0   0   0   0   0   0   0   7   0   0   0   0   0   0   0   0   0   0   0   0  10  16 98 96 94 93 74 72 71 65 62 61 60 58 57 50 48 43 
   2   0   0  10   0   0   0   0   0   0   2   0   0   0   0   0   0   0   0   0   0   4   0   0   0   0   0   0   0   0   0  15 101 98 96 95 94 93 92 72 71 62 57 51 50 49 36 
   2   0   0   0   0   0   0   9   0   0   0   0   0   2   0   3   0   0   0   0   0   0   0   0   0   0   0   0   0   0   0  22 101 99 98 97 96 94 93 92 91 89 88 80 72 70 68 66 63 62 61 60 55 50 
   1   1   0   0   0   0   0   0   0   0   0   0   0   6   0   0   7   0   0   0   5   0   0   7   0   0   0   0   0   0   7  17 101 99 98 96 95 94 93 92 91 88 82 71 61 60 55 51 38 
   1   0   0   0   0   0   0   0   0   0   0   0   0   0   0   0   0   0   0   0   0   0   0   0   0   0   0   7   0   3   0  15 100 99 98 96 94 90 73 72 71 62 61 60 57 55 40 
   4   0   0   0   6   0   0   0   0   0   0   0   0   0   0   0   0   0   0   0   7   0   0   0   0   0   0   0   0   0   0  19 101 99 97 95 94 92 91 90 88 87 74 72 71 70 68 60 59 57 49 
   8   7   0   0   0   0   0   0   0   0   0   0   0   0   0   0   0   5   0   0   0   0   0   0   0   0   0   5   0   0   0  13 98 94 93 92 91 90 74 72 64 57 55 51 36 
   7   0   0   0   7   7   0   0   0   0   0   0   0   0   0   0   0   0   9   0   0   0   0   0   0   0   0   0   0   0   0  10 101 98 96 74 73 68 62 57 52 40 
   7   0   0   0   6   0   0   0   0   3   0   0   0   6   0  10   0   0   0   0   0   0   0   0   0   0   9   0   0   4   0  16 101 99 96 91 88 73 72 71 69 67 63 62 58 53 52 51 
   9   0   0   0   0   3   6   0   0   0   0   0   0   0   0   5   8   0   0   4   0   0   4   9   5   0   5   0   0   0   0  13 101 95 93 91 90 87 70 67 61 60 52 49 39 
   3   0   5   0   0   0   0   0   0   0   0   0   0   0   0   0   0   7   0   0   0   0   0   6   0   0   0   0   0   0   0  20 101 100 99 93 91 90 89 88 85 83 82 79 78 72 71 70 69 68 63 52 
   5   0   0   0   0   0   0   0   0   0   0   0   0   0   0   2   0   0   0   0   0   0   0   0   0   0   0   0   0  10   0  15 101 97 96 94 92 91 73 72 71 68 67 62 60 50 48 
   7   0   4   7   0   0   0   0   0   4   0   0   0   4   0   0   0   4   0   0   0   0   0   0   0   5   0   0   0   0   0  13 100 99 96 93 89 83 72 71 68 60 57 52 50 
   7   0   0   0   0   0   0   3   0   0   0   0   0   0   9   0   0   0   0   0   0  10   0   0   0   0   0   0   0   0   0  15 97 95 93 92 91 90 88 87 81 80 78 68 62 60 49 
   7   0   0   0   0   4   3   0   0   0   0   0   0   0   0   0   0   0   0   0   0   0   0   0   0   0   9   0   0   0   0   8 93 91 70 68 61 60 52 50 
   6   0   0   0   0   0   0   0   0   0   1   0   4   0   0   6   0   0   0   0   0  10   0   0   0   0   0   7   0   0   0  13 100 96 91 88 87 82 80 78 71 70 68 61 60 
   1   0   0   0   0   5   0   0   0   0   0   0   0   0   0   0   0   0   0   0   0   0   0   0   0   0   0   0   0   0   0  13 101 100 97 95 92 91 90 89 87 80 78 68 49 
   4   0   0   0   7   0   0   0   0   0   0   0   0   0   0   3   0   0   0   0   0   0   0   0   0   0   0   0   0  10   0  14 94 92 91 90 88 87 85 80 77 76 72 69 62 61 
   1   0   0   0   0   0   0   7   0   5   0   0   9   0   0   0   0   0   0   0   0   0   0   0   0   6   0   5   0   0   0  11 96 95 89 84 82 79 78 75 73 68 52 
   9   0   0   0   0   0   0   6   0   0   0   0   0   0   0   5   0   0   0   0   0   0   6   0   0  10   0   5   0   0   0  11 98 95 93 88 87 84 83 81 80 78 49 
   8   0   0   0   0   0   0  10   0   0   0   0  10   0   0   0   0   0   0   1   0   0   0   5   8   0   0   0   0   0   8  10 100 89 88 87 82 81 78 68 61 60 
   4   0   0   0   0   0   0   0   0   0   0   0   0   0   0   8   7   0   0   0   0   0   0   0   0   0   0   0   0   0   0  16 99 98 97 95 94 93 91 90 89 86 84 83 79 77 76 72 
   2   6   0   0   0   0   0   0   6   0   0   8   0   0   0   0   7   6   0   5   0   3   6   0   0   0   0   0   0   0   0   9 97 89 85 83 80 70 69 68 50 
   3   0   0   0   0   8   0   0   0   0   5   0   0   0   0   0   0   0   0   0   0   0   0   0   0   5   0   0   0   0   5  14 94 92 88 84 83 82 81 80 79 78 77 75 71 68 
   7   0   0   0   0   0   0   4   0   0   0   0   0   0   0   0   0   0   0   0   0   0   5   0   0   0   0   0   0   0   0  11 97 93 91 89 88 79 78 77 70 69 63 
   7   0   0   0   0   0   0   0   0   8   0   0   0   0   0   0   0   0   0   9   0   0   0   0   0   0   0   0   0   0   0  11 94 91 90 84 81 80 79 78 77 70 63 
   4   0   0   0   0   0   0   0   0   0   0   0   0   0   0   0   0   0   0   0   0   0   0   6   0   0   8   0   0   0   0   8 89 88 80 79 78 71 62 53 
   6   0   0   0   0   0   0   0   0   0   0   0   0   0   0   0   0   0   6   0   0   0   0   0   0   0   0   0   0   0   0  11 92 91 89 86 84 82 81 80 78 76 75 
   2   0   0   0   0   0   0   0   9   0   0   0   0   0   0   0   0   0   0   0   0   0   0   0   0   0   0   0   0  10   0  11 93 90 89 88 87 86 85 83 81 80 75 
   6   0   0   0   0   0   0   0   0  10   0   0   0   0   0   0   0   4   0   0   0   0   0   0   0   8   0   0   6   0   0  10 93 86 85 82 81 80 79 77 76 75 
   1   0   0   0   0   0   0   0   0   0   0   0   0   0   0   0   0   0   0   0   0   0   6   9   0   0   0   0   0   0   0   6 95 90 87 78 68 62 
   5   0   0   2   0   0   0   5   0   0   0   0   0   0   0   0   3   0   0   0   0   0   0   8   0   0   0   0   0   0   0   9 96 85 83 82 81 79 78 76 75 
   7   0   0   0   0   0   0   0   0  10   0   0   0   0   0   0   0   0   4   0   0   0   0   0   0   0   0   0   0   0   0   8 89 88 87 83 81 78 76 75 
   2   0   0   0  10   6   0   0   0   0   0   8   0  10   0   0   0   0   0   0   0   6   0   3   0   0   0   0   0   0   0   7 86 82 79 77 76 75 73 
   1   0   0   0   0   0   0   0   0   3   0   0   0   0   0   0   0   0   0   0   0   0   7   0   0   0   0   0   0   0   0   7 90 81 79 78 77 76 75 
   7   0   0   0   0   0   0   0   0   0   0  10   5   0   0   5   7   0   0   0   0   0   0   6   0   0   0   0   0   0   0   7 87 84 83 80 79 76 75 
   6   0   6   0   0   0   0   0   0   0   9   0   0   0   5   0   0   0   0   0   0   0   0   0   0   0   0   8   0   6   0   6 94 92 86 81 80 77 
   8   0   0   0   0   0   0   0   0   0   0   0   0   0   0   0   9   0  10   0   0   0   7   0   0   0   5   0   0   0   0   6 93 83 82 77 76 75 
   8   0   0   0   0   0   0   0   0   0   0   0   0   3   0   6   0   0   0   0   0   4   0   0   0   0   0   0   0   5   0   5 97 96 91 82 68 
   7   0   0   0   0  10   0   0   0   0   0   0   0   0   0   7   0   0   0   0   0   0   0  10   0   0   0   0   0   0   0   5 87 79 78 76 75 
  10   0   0   9   0   0   0   0   0   0   0   0   0   0   0   0   0   0   0   0   0   4   0   0   0   5   0   0   0   0   0   5 92 82 80 78 76 
   7   0   0   0   0   0   0   0   0   0   9   0   0   0   0   0   0   0   5  10   0  10   0   9   0   8   0   0   0   0   5   4 81 80 76 75 
   8   0   0   3   0   0   0   0   0   0   6   0   0   0   5   0   4   0   0   0   0   6   0   0   0   3   0   0   0   0   0   4 95 81 76 75 
  10   7   0   0   5   0   6   0   0   0   0   0   5   6   0   0   0   0   0   0   0   0   8   0   0   0   0   0   0   0   0   4 89 78 77 75 
   9   8   0   0   0   0   0   0   0   0   0   0   0   0   0   0   8   0   0   0   7   0   0   0   0   0   0   0   0   0   7   3 85 77 69 
   9   0   0   0   0   0   6   9   8   0   7   0   9   0   6   0   0   0   6   0   0   0   0   3   0   0   0   0   0   0   0   3 86 83 75 
   5   6   0   0   0   3   0   0   0   0   2   0   4   0   0   0   0   0   0   0   0   0   0   0   0   9   0   0   0   0   0   3 83 82 75 
   6   0   0   0   0   4   8   0   0   0   0   0   0   0   0   0   0   0   0   0   0   0   7   0   0   0   6   0   0   6   0   3 87 76 75 
   9   8   0   0   0   0   0   0   0   0   0   0   0   0   0   0   0   0   0   0   7   0   8   0   0   0   0   0   7   0   0   3 79 76 75 
   9   4   0   0   0   0  10   0   0   0   0   4   0   0   0   0   0   0   0   6   0  10   0   0   0   0   0   0   0   0   0   2 78 68 
   7   0   0   0   0   0   0   0   0   0   0   0   0   6   0   7  10   0   0   0   0   0   7   0   0   0   0   0   5   0   0   2 90 84 
   4   0   0   0   0   0   0   0   0   0   0   0   8   0   0   0   0   0   5   0   0   0   0   0   0   0   0   0   0   0   4   2 79 76 
   8   0  10   0   0   0   7   6   0   4   0   0   2   0   0   0   0   0   7   0   0   6   0   0   0   0   0   6   0   0   0   1 76 
   7   9   0   0   0   0   0   6   0   4   0   0   0   0   0   0   0   5   0   0   0   0   0   0   0   0   0   0   0   0   0   1 84 
   7   0   0   0   0   0   0   0   0   0   0   0   8   0   0   0   0   0   0   0   0   0   0   2   7   0   0   0   0   0   0   1 75 
   7   0   0   0   0   0   0   0   5   0   0   0   0   0   0   0   5   0   0   0   0   0   0   0   0   0  10   0   0   0   0   1 76 
   5   0   0   0   0   0   0   9   0   0   0   0   7   6   0   0   0   0   8   0   0   0   0   0   0   0   0   0   0   4   0   1 75 
   4   0   0   0   0   0   4   4  10   6   9   0   0   0   0   0   0   0   0   0   0   6   0   4   0   0   0   0   0   0   0   1 85 
   1   0   6   0   0   0   0   0   0   0   0   0   0   0   0   0   0   7   0   0   0   0   0   0   0   0   0   0   6   0   0   1 80 
   3   0   0   7   4   0   0   0   0   0   0   0   0   0  10   0   0   0   3   0   4   0   0   0   0   0   0   0   0   0   0   1 102
   3   0   0   0   0   0   0   3   0   0   0   4   0   0   0   0   0   0   0   0   0   0   0   2   0   0   0   0   0   0   0   1 102
   3   0   0   0   0   5   0   7   0   8  10   0   0   0   0   0   0   0   0   0   0   0   0   0   0   0   6   0   0   0   0   1 102
   2   0   0   0   0   0   0   0   0   0   0   0   0   0   0   0   0   0   0   0   0   6   0   0   0   4   6   0   0   0   0   1 102
   3   0   0   0   0   0   0   0   0   0   6   0   5   0   0   0   0   0   0   0   0   0   0   8   0   0   5   0   0   0   0   1 102
   7   0   0   0   0   0   6   0   0   4   0   0   0   0   0   0   0   0   0   0   0   0   0   5   0   0   0   9   0   0   0   1 102
   8   0   0   0   0   0   0   0   0   0   0   0   0   0   0   0   0   0   5   0   0   0   0   3   0   0   0   0   0   0   0   1 102
   2   0  10   0   0   0   0   0   0   0   0   0   0   0   0   0   0   0   0   0   0   0   0   7   7   0   0   0   0   0   0   1 102
   6   0   0   6   0   0   0   0   2   0   0   0   7   0   0   0   0   0  10   0   0   9   0   0   0   0   0   0   0   0   0   1 102
   7   0   0   0   0   7   0   0   9   0   0   0   0   0   0   0   0   0   0   0   0   0   0   0   0   0   0   0   0   0   0   1 102
   7   0   7   0   0   7   0   0   0   0   0   0   0   0   0   0   0   0   0   0   0   0   0   0   0   8   0   0   0   0   0   1 102
   5   0   0   0   0   0   0   0   0   0   0   0   0   0   0   0   0   0   0   0   0   8   0   0   8   5   0   0   0   0   0   1 102
   5   0   0   0   0   0   7   0   0   0   0   0   0   9   0   0   0   0   0   0   0   0   0   0   0   0   0   5   0   0   1   1 102
   3   0   0   0   0   0   0   0   5   0  10   0   0   0   0  10   0   0   0   6   0   0   0   0   0   0   0   0   0   0   0   1 102
   9   0   0   0   0   0   0   0   0   9   0   0   0   0   6   0   0   0   0   0   0   0  10   0   0   0   0   0   0   0   0   1 102
   7   0   0   0   0   0   0   7   0   0   0   8   0   0   0   0   0   0   0   0   0   0   3   0   0   0   0   0   7   0   0   1 102
  10   0   0   0   8   0   0   0   0   0   0   0   0   0   0   0   0  10   0   0   0   6   1   0   0   0   0   0   0   0   0   1 102
   5   0   0   0   0   0   0   4   0   0   6   0   0   0   0   0   0   0   0   0   0   0   0   0   0   0   0   0   0   0   0   1 102
   2   0   0   0   0   0   0   0   0   0   0   0   0   0   7   0   4   0   0   7   0   0   0   0   0   0   0   0   0   0   0   1 102
   5   0   0   0   0   0   0   7   3   0   0   0   0   6   0   7   0   0   0   0   0   0   0   0   0   0   0   0   0   0  10   1 102
   6   0   0   0   0   0   0   8   0   0   0   0   0   0   0   0   0   0   0   0   0   5   0   0   0   0   0   0   0   0   0   1 102
   3   0   0   0   0   0   0   0   0   0   0   0   0   0   0   0   0   3   0   0   0   0   0   0   0   0   0   0   0   0   5   1 102
   7   0   0   0   0   0   0   0   0   0   0   0   0   0   0   0   0   0   3   0   0   0   0   0   0   0   3   0   0   7   0   1 102
   8   0   5   0   0  10   0   0   0   0   0   0   3   8   0   0   0  10   6   0   0   0   8  10   0   0   0   0   0   0   0   1 102
  10   4   0   0   0   0   0   0   0   0   0   0   0   0   0   0   0   0   0   0   0   0   0   0   0   0   0   0   0   3   8   1 102
  10   0   0   0   0   4   8   0   0   0   0   0   0   0   8   0   0   0   0   0   0   3   0   0   0   0   4   0   0   0   6   1 102
   4   0   5   7   0   0   0   0   8   6   0   0   0   0   0   0   0   0   0   0   0   0   0   0   0   0   0   0   0   0   0   1 102
   0   0   0   0   0   0   0   0   0   0   0   0   0   0   0   0   0   0   0   0   0   0   0   0   0   0   0   0   0   0   0   0 
